1243486
57,75,86,27,69,70,14,39,8,28,36,12,65,88,7,42,60,106,108,33,78,55,40,68,13,93,96,87,62,19,73,18,50,76,99,71,47,97,91,89,11,49,31,72,38,41,26,37,9,77,66,10,109,90,24,64,22,104,58,54,102,100,53,17,105,21,48,80,15,23,67,4,92,74,56,103,30,6,95,32,61,43,85,79,44,20,63,3,83,25,16,107,94,46,81,2,51,84,59,29,52,34,45,82,1,101,98,35,5